WARNING: for repeatability, setting FPU to use double precision
============================[ Problem Statistics ]=============================
|                                                                             |
|  Number of variables:            50                                         |
|  Number of clauses:             218                                         |
|  Parse time:                   0.00 s                                       |
|                                                                             |
============================[ Search Statistics ]==============================
| Conflicts |          ORIGINAL         |          LEARNT          | Progress |
|           |    Vars  Clauses Literals |    Limit  Clauses Lit/Cl |          |
===============================================================================
===============================================================================
restarts              : 1
conflicts             : 54             (36735 /sec)
decisions             : 57             (0.00 % random) (38776 /sec)
propagations          : 716            (487075 /sec)
conflict literals     : 196            (19.67 % deleted)
Memory used           : 20.00 MB
CPU time              : 0.00147 s

UNSATISFIABLE
